200
100
100
99
99
99
98
98
98
98
97
95
95
95
95
94
94
92
92
92
92
91
90
88
88
88
88
87
87
87
86
85
84
84
83
83
83
82
82
82
82
81
81
81
81
80
80
80
79
78
77
75
75
74
74
74
73
73
72
72
71
71
70
70
70
69
68
68
68
68
67
67
66
66
65
64
63
62
61
60
60
58
58
57
57
56
56
55
55
55
55
55
55
54
53
53
53
52
51
50
49
49
49
48
48
48
48
47
47
47
46
45
43
43
42
42
42
42
41
41
41
41
40
40
39
39
38
38
38
38
36
35
35
34
33
32
32
30
28
28
28
28
28
26
26
25
25
24
24
23
23
23
22
22
22
22
21
21
21
21
20
20
20
19
19
19
18
17
17
16
15
15
14
14
13
13
12
12
11
11
11
10
9
9
9
8
7
6
6
5
5
4
4
4
3
3
3
2
2
2
2
1
